(set-info :smt-lib-version 2.6)
(set-logic QF_SNIA)
(set-info :source  | 
Generated by: Johannes Bauer
Generated on: 2026-06-21
Generator: mgm A12 Test Data Generator
Application: ELSTER
Target solver: Z3, CVC5
Script is based on the ELSTER form: capital gains tax registration (A / KapEStInvStG)
Characteristic of the form: easy.
In this script, all terms of the form (* x1 x2 x3 ...) are in the form (* x1 c2 c3 ...),
all terms of the form (div x y) are in the form (div x c) and the symbol mod is exclusively used in the form (mod x c),
where x, y, and x1, x2, x3 ... are free constants and c, c2, c3 ... are terms in the form n or (-n) for some numeral n.
The script starts with the base constraints, which define a valid data set for the corresponding form. After the first (push 1), control constraints follow.
The goal of the control constraints in this script is to fill up a data set with values, after the characteristics of the high test coverage were placed.
number variables: 79, number constraints: 123
"https://www.elster.de/eportal/start?locale=en_US"
"https://www.mgm-tp.com/q12-tdg.html"
"https://a12.ai/public-sector"
|)
(set-info :license "https://creativecommons.org/licenses/by/4.0/")
(set-info :category "industrial")
(declare-fun S1-S () String)
(declare-fun B2-F () Bool)
(declare-fun I2-y () Int)
(declare-fun B3-F () Bool)
(declare-fun S4-S () String)
(declare-fun I5-y () Int)
(declare-fun I5-m () Int)
(declare-fun I5-d () Int)
(declare-fun I6-y () Int)
(declare-fun I6-m () Int)
(declare-fun I6-d () Int)
(declare-fun I7 () Int)
(declare-fun I8 () Int)
(declare-fun I9-s-y () Int)
(declare-fun I9-s-m () Int)
(declare-fun I9-s-d () Int)
(declare-fun I9-e-y () Int)
(declare-fun I9-e-m () Int)
(declare-fun I9-e-d () Int)
(declare-fun I10-y () Int)
(declare-fun I10-d () Int)
(declare-fun I11-y () Int)
(declare-fun I11-m () Int)
(declare-fun I11-d () Int)
(declare-fun I12 () Int)
(declare-fun I13 () Int)
(declare-fun I14-s-y () Int)
(declare-fun I14-s-m () Int)
(declare-fun I14-s-d () Int)
(declare-fun I14-e-y () Int)
(declare-fun I14-e-m () Int)
(declare-fun I14-e-d () Int)
(declare-fun I15-y () Int)
(declare-fun I15-d () Int)
(declare-fun I16-y () Int)
(declare-fun I16-m () Int)
(declare-fun I16-d () Int)
(declare-fun I17 () Int)
(declare-fun I18 () Int)
(declare-fun I19 () Int)
(declare-fun I20 () Int)
(declare-fun S21-S () String)
(declare-fun I22-y () Int)
(declare-fun I22-m () Int)
(declare-fun I22-d () Int)
(declare-fun I23-y () Int)
(declare-fun I23-m () Int)
(declare-fun I23-d () Int)
(declare-fun I24 () Int)
(declare-fun I25-y () Int)
(declare-fun I25-m () Int)
(declare-fun I25-d () Int)
(declare-fun I26 () Int)
(declare-fun I27 () Int)
(declare-fun B28-F () Bool)
(declare-fun I28-y () Int)
(declare-fun I28-m () Int)
(declare-fun I28-d () Int)
(declare-fun B29-F () Bool)
(declare-fun B30-F () Bool)
(declare-fun I30 () Int)
(declare-fun B31-F () Bool)
(declare-fun I31 () Int)
(declare-fun B32-F () Bool)
(declare-fun B33-F () Bool)
(declare-fun B34-F () Bool)
(declare-fun B35-F () Bool)
(declare-fun B36-F () Bool)
(declare-fun B37-F () Bool)
(declare-fun B38-F () Bool)
(declare-fun B39-F () Bool)
(declare-fun I39 () Int)
(declare-fun B40-F () Bool)
(declare-fun B41-F () Bool)
(declare-fun B42-F () Bool)
(declare-fun I43 () Int)
(declare-fun B44-F () Bool)
(declare-fun B45-F () Bool)
(declare-fun B46-F () Bool)
(assert (or (< 0 I23-y) (and (= 0 I23-y) (< 0 I23-m)) (and (= 0 I23-y) (= 0 I23-m) (< 0 I23-d))))
(assert (distinct I24 0))
(assert (and (>= I9-s-y (- I9-e-y 1)) (or (distinct I9-s-y (- I9-e-y 1)) (>= I9-s-m I9-e-m)) (distinct I9-s-y (- I9-e-y 1)) (= I9-s-m I9-e-m) (< I9-s-d (+ I9-e-d 1))))
(assert (distinct I19 0))
(assert (and (>= I14-s-y (- I14-e-y 1)) (or (distinct I14-s-y (- I14-e-y 1)) (>= I14-s-m I14-e-m)) (distinct I14-s-y (- I14-e-y 1)) (= I14-s-m I14-e-m) (< I14-s-d (+ I14-e-d 1))))
(assert (not (or B28-F B29-F)))
(assert (= B29-F (or B30-F B31-F)))
(assert (= B44-F (or B45-F B46-F)))
(assert (ite B30-F (and (<= I30 999999999999) (>= I30 0)) (= I30 0)))
(assert (ite B31-F (and (<= I31 999999999999) (>= I31 0)) (= I31 0)))
(assert (and (<= I7 999999999999) (>= I7 (- 999999999999))))
(assert (and (<= I8 99999999999999) (>= I8 (- 99999999999999))))
(assert (and (<= I24 999999999999) (>= I24 (- 999999999999))))
(assert (and (<= I26 999999999999) (>= I26 0)))
(assert (and (<= I27 999999999999) (>= I27 0)))
(assert (and (<= I12 999999999999) (>= I12 (- 999999999999))))
(assert (and (<= I13 99999999999999) (>= I13 (- 99999999999999))))
(assert (and (<= I17 99999999999999) (>= I17 (- 99999999999999))))
(assert (and (<= I18 99999999999999) (>= I18 (- 99999999999999))))
(assert (and (<= I19 999999999999) (>= I19 (- 999999999999))))
(assert (and (<= I20 99999999999999) (>= I20 (- 99999999999999))))
(assert (ite B35-F true false))
(assert (ite B34-F true false))
(assert (ite B32-F true false))
(assert (ite B33-F true false))
(assert (ite B36-F true false))
(assert (ite B37-F true false))
(assert (ite B38-F true false))
(assert (ite B39-F (and (<= I39 99999999999999) (>= I39 (- 9999999999999))) (= I39 0)))
(assert (ite B40-F true false))
(assert (ite B41-F true false))
(assert (ite B42-F true false))
(assert (and (<= I43 99999999999999) (>= I43 (- 9999999999999))))
(assert (and (ite B28-F (and (> I28-y 1900) (< I28-y 2100)) (= I28-y 0)) (ite B28-F (and (> I28-m 0) (<= I28-m 12)) (= I28-m 0)) (ite B28-F (and (> I28-d 0) (<= I28-d (ite (or (= I28-m 0) (= I28-m 1) (= I28-m 3) (= I28-m 5) (= I28-m 7) (= I28-m 8) (= I28-m 10) (= I28-m 12)) 31 (ite (or (= I28-m 4) (= I28-m 6) (= I28-m 9) (= I28-m 11)) 30 (ite (= (mod I28-y 4) 0) 29 28))))) (= I28-d 0))))
(assert (ite B2-F (and (> I2-y 1900) (< I2-y 2100)) (= I2-y 0)))
(assert (and (> I6-y 1900) (< I6-y 2100) (> I6-m 0) (<= I6-m 12) (> I6-d 0) (<= I6-d (ite (or (= I6-m 0) (= I6-m 1) (= I6-m 3) (= I6-m 5) (= I6-m 7) (= I6-m 8) (= I6-m 10) (= I6-m 12)) 31 (ite (or (= I6-m 4) (= I6-m 6) (= I6-m 9) (= I6-m 11)) 30 (ite (= (mod I6-y 4) 0) 29 28))))))
(assert (and (> I5-y 1900) (< I5-y 2100) (> I5-m 0) (<= I5-m 12) (> I5-d 0) (<= I5-d (ite (or (= I5-m 0) (= I5-m 1) (= I5-m 3) (= I5-m 5) (= I5-m 7) (= I5-m 8) (= I5-m 10) (= I5-m 12)) 31 (ite (or (= I5-m 4) (= I5-m 6) (= I5-m 9) (= I5-m 11)) 30 (ite (= (mod I5-y 4) 0) 29 28))))))
(assert (and (> I22-y 1900) (< I22-y 2100) (> I22-m 0) (<= I22-m 12) (> I22-d 0) (<= I22-d (ite (or (= I22-m 0) (= I22-m 1) (= I22-m 3) (= I22-m 5) (= I22-m 7) (= I22-m 8) (= I22-m 10) (= I22-m 12)) 31 (ite (or (= I22-m 4) (= I22-m 6) (= I22-m 9) (= I22-m 11)) 30 (ite (= (mod I22-y 4) 0) 29 28))))))
(assert (and (> I23-y 1900) (< I23-y 2100) (> I23-m 0) (<= I23-m 12) (> I23-d 0) (<= I23-d (ite (or (= I23-m 0) (= I23-m 1) (= I23-m 3) (= I23-m 5) (= I23-m 7) (= I23-m 8) (= I23-m 10) (= I23-m 12)) 31 (ite (or (= I23-m 4) (= I23-m 6) (= I23-m 9) (= I23-m 11)) 30 (ite (= (mod I23-y 4) 0) 29 28))))))
(assert (and (> I25-y 1900) (< I25-y 2100) (> I25-m 0) (<= I25-m 12) (> I25-d 0) (<= I25-d (ite (or (= I25-m 0) (= I25-m 1) (= I25-m 3) (= I25-m 5) (= I25-m 7) (= I25-m 8) (= I25-m 10) (= I25-m 12)) 31 (ite (or (= I25-m 4) (= I25-m 6) (= I25-m 9) (= I25-m 11)) 30 (ite (= (mod I25-y 4) 0) 29 28))))))
(assert (and (> I11-y 1900) (< I11-y 2100) (> I11-m 0) (<= I11-m 12) (> I11-d 0) (<= I11-d (ite (or (= I11-m 0) (= I11-m 1) (= I11-m 3) (= I11-m 5) (= I11-m 7) (= I11-m 8) (= I11-m 10) (= I11-m 12)) 31 (ite (or (= I11-m 4) (= I11-m 6) (= I11-m 9) (= I11-m 11)) 30 (ite (= (mod I11-y 4) 0) 29 28))))))
(assert (and (> I10-y 1900) (< I10-y 2100) (> I10-d 0) (<= I10-d 31)))
(assert (or (< I9-s-y I9-e-y) (and (= I9-s-y I9-e-y) (< I9-s-m I9-e-m)) (and (= I9-s-y I9-e-y) (= I9-s-m I9-e-m) (<= I9-s-d I9-e-d))))
(assert (and (>= I9-e-d 1) (<= I9-e-d (ite (or (= I9-e-m 0) (= I9-e-m 1) (= I9-e-m 3) (= I9-e-m 5) (= I9-e-m 7) (= I9-e-m 8) (= I9-e-m 10) (= I9-e-m 12)) 31 (ite (or (= I9-e-m 4) (= I9-e-m 6) (= I9-e-m 9) (= I9-e-m 11)) 30 (ite (= (mod I9-e-y 4) 0) 29 28))))))
(assert (and (>= I9-e-m 1) (<= I9-e-m 12)))
(assert (and (>= I9-e-y 1901) (<= I9-e-y 2099)))
(assert (and (>= I9-s-d 1) (<= I9-s-d (ite (or (= I9-s-m 0) (= I9-s-m 1) (= I9-s-m 3) (= I9-s-m 5) (= I9-s-m 7) (= I9-s-m 8) (= I9-s-m 10) (= I9-s-m 12)) 31 (ite (or (= I9-s-m 4) (= I9-s-m 6) (= I9-s-m 9) (= I9-s-m 11)) 30 (ite (= (mod I9-s-y 4) 0) 29 28))))))
(assert (and (>= I9-s-m 1) (<= I9-s-m 12)))
(assert (and (>= I9-s-y 1901) (<= I9-s-y 2099)))
(assert (and (> I16-y 1900) (< I16-y 2100) (> I16-m 0) (<= I16-m 12) (> I16-d 0) (<= I16-d (ite (or (= I16-m 0) (= I16-m 1) (= I16-m 3) (= I16-m 5) (= I16-m 7) (= I16-m 8) (= I16-m 10) (= I16-m 12)) 31 (ite (or (= I16-m 4) (= I16-m 6) (= I16-m 9) (= I16-m 11)) 30 (ite (= (mod I16-y 4) 0) 29 28))))))
(assert (and (> I15-y 1900) (< I15-y 2100) (> I15-d 0) (<= I15-d 31)))
(assert (or (< I14-s-y I14-e-y) (and (= I14-s-y I14-e-y) (< I14-s-m I14-e-m)) (and (= I14-s-y I14-e-y) (= I14-s-m I14-e-m) (<= I14-s-d I14-e-d))))
(assert (and (>= I14-e-d 1) (<= I14-e-d (ite (or (= I14-e-m 0) (= I14-e-m 1) (= I14-e-m 3) (= I14-e-m 5) (= I14-e-m 7) (= I14-e-m 8) (= I14-e-m 10) (= I14-e-m 12)) 31 (ite (or (= I14-e-m 4) (= I14-e-m 6) (= I14-e-m 9) (= I14-e-m 11)) 30 (ite (= (mod I14-e-y 4) 0) 29 28))))))
(assert (and (>= I14-e-m 1) (<= I14-e-m 12)))
(assert (and (>= I14-e-y 1901) (<= I14-e-y 2099)))
(assert (and (>= I14-s-d 1) (<= I14-s-d (ite (or (= I14-s-m 0) (= I14-s-m 1) (= I14-s-m 3) (= I14-s-m 5) (= I14-s-m 7) (= I14-s-m 8) (= I14-s-m 10) (= I14-s-m 12)) 31 (ite (or (= I14-s-m 4) (= I14-s-m 6) (= I14-s-m 9) (= I14-s-m 11)) 30 (ite (= (mod I14-s-y 4) 0) 29 28))))))
(assert (and (>= I14-s-m 1) (<= I14-s-m 12)))
(assert (and (>= I14-s-y 1901) (<= I14-s-y 2099)))
(assert (and (> (str.to_int S4-S) 1900) (< (str.to_int S4-S) 2100)))
(assert (and (> (str.to_int S4-S) 1900) (< (str.to_int S4-S) 2100)))
(assert (and (str.in_re S4-S (re.+ (re.range "0" "9"))) (>= (str.len S4-S) 4) (<= (str.len S4-S) 4)))
(assert (and (str.in_re S21-S (re.+ (re.range "0" "9"))) (>= (str.len S21-S) 4) (<= (str.len S21-S) 4)))
(assert (or (= S1-S "0") (= S1-S "1")))
(assert (not (and B31-F B30-F (distinct I30 0) (distinct I31 (div (* I30 15) 100)))))
(assert (not (and B28-F (or (< I28-y 2025) (> I28-y 2025)))))
(assert (not (and (or B46-F B45-F) (not (and B46-F B45-F)))))
(assert (not (distinct (- 1) (+ I7 I19 I24 I26 I27 (- 4946543955)))))
(assert (not (distinct 0 (+ I8 I13 I17 I18 I20 102806871712))))
(assert (not (and B2-F (or (< I2-y 2025) (> I2-y 2025)))))
(assert (not (or (> I6-y I5-y) (and (= I6-y I5-y) (> I6-m I5-m)) (and (= I6-y I5-y) (= I6-m I5-m) (> I6-d I5-d)))))
(assert (not (or (distinct I5-y (ite B2-F I2-y 0)) (distinct I5-m 7))))
(assert (not (>= (ite (and (>= (str.to_int S4-S) 1) (<= (str.to_int S4-S) 9999)) (+ (- I6-y (str.to_int S4-S)) (ite (or (< (str.to_int S4-S) I6-y) (and (= (str.to_int S4-S) I6-y) (< 5 I6-m)) (and (= (str.to_int S4-S) I6-y) (= 5 I6-m) (< 1 I6-d)) (and (= (str.to_int S4-S) I6-y) (= 5 I6-m) (= 1 I6-d))) (ite (or (< 5 I6-m) (and (= 5 I6-m) (<= 1 I6-d))) 0 (- 1)) (ite (or (> 5 I6-m) (and (= 5 I6-m) (>= 1 I6-d))) 0 1))) 0) 1)))
(assert (not (< I5-y (str.to_int (str.substr S4-S 0 4)))))
(assert (not (> (str.to_int (str.substr S4-S 0 4)) 2025)))
(assert (not (= I7 0)))
(assert (not (> (* I7 100) 85)))
(assert (not (> (ite (>= (- (- 6460) (div (* I7 55) 10)) 0) (- (- 6460) (div (* I7 55) 10)) (- (- (- 6460) (div (* I7 55) 10)))) 100)))
(assert (not (> (ite (>= (- I8 (- 29153383309)) 0) (- I8 (- 29153383309)) (- (- I8 (- 29153383309)))) 100)))
(assert (not (< I23-y 2023)))
(assert (not (distinct I22-y (str.to_int (str.substr S21-S 0 4)))))
(assert (not (or (> I22-y (ite B2-F I2-y 0)) (and (= I22-y (ite B2-F I2-y 0)) (> I22-m 7)))))
(assert (not (> (str.to_int (str.substr S21-S 0 4)) 2025)))
(assert (not (or (and (or (< I22-y 2022) (and (= I22-y 2022) (< I22-m 10)) (and (= I22-y 2022) (= I22-m 10) (< I22-d 1))) (< (str.to_int (str.substr S21-S 0 4)) 2025)) (and (or (> I22-y 2022) (and (= I22-y 2022) (> I22-m 10)) (and (= I22-y 2022) (= I22-m 10) (> I22-d 1)) (and (= I22-y 2022) (= I22-m 10) (= I22-d 1))) (or (and (< (str.to_int (str.substr S21-S 0 4)) 2025) (= (str.to_int (str.substr S21-S 0 4)) 2024)) (and (< (str.to_int (str.substr S21-S 0 4)) 2025) (distinct (str.to_int (str.substr S21-S 0 4)) 2024)))))))
(assert (not (or (and (= I22-y (ite B2-F I2-y 0)) (< I22-m 3)) (and (distinct I22-y (ite B2-F I2-y 0)) (< I22-y (- (ite B2-F I2-y 0) 1))) (and (distinct I22-y (ite B2-F I2-y 0)) (= I22-y (- (ite B2-F I2-y 0) 1)) (> I22-m 8) (< I22-m 15)) (and (distinct I22-y (ite B2-F I2-y 0)) (= I22-y (- (ite B2-F I2-y 0) 1)) (<= I22-m 8)))))
(assert (not (= I24 0)))
(assert (not (> (* I24 100) 15000000000085)))
(assert (not (> (ite (>= (- 624 (div (* I24 55) 10)) 0) (- 624 (div (* I24 55) 10)) (- (- 624 (div (* I24 55) 10)))) 100)))
(assert (not (or (= I26 0) (= I27 0))))
(assert (not (or (> (* I26 100) 15000000000085) (> (* I27 100) 15000000000085))))
(assert (not (> (ite (>= (- 8526867004 (div (* I26 55) 10)) 0) (- 8526867004 (div (* I26 55) 10)) (- (- 8526867004 (div (* I26 55) 10)))) 100)))
(assert (not (> (ite (>= (- 94280010545 (div (* I27 55) 10)) 0) (- 94280010545 (div (* I27 55) 10)) (- (- 94280010545 (div (* I27 55) 10)))) 100)))
(assert (not (or (> I25-y (ite B2-F I2-y 0)) (and (> I25-m 7) (= I25-y (ite B2-F I2-y 0))))))
(assert (not (or (> I11-y I10-y) (and (= I11-y I10-y) (> I11-m 7)) (and (= I11-y I10-y) (= I11-m 7) (> I11-d I10-d)))))
(assert (not (distinct I10-y (ite B2-F I2-y 0))))
(assert (not (< I10-y 2025)))
(assert (not (> 34464763200 (+ (* I12 15) 100))))
(assert (not (> (ite (>= (- I13 1895561976) 0) (- I13 1895561976) (- (- I13 1895561976))) 100)))
(assert (not (or (> I9-e-y I10-y) (and (= I9-e-y I10-y) (> I9-e-m 7)) (and (= I9-e-y I10-y) (= I9-e-m 7) (> I9-e-d I10-d)))))
(assert (not (or (< I9-s-y (- I9-e-y 1)) (and (= I9-s-y (- I9-e-y 1)) (< I9-s-m I9-e-m)) (and (= I9-s-y (- I9-e-y 1)) (= I9-s-m I9-e-m) (< I9-s-d (+ I9-e-d 1))))))
(assert (not (or (> I16-y I15-y) (and (= I16-y I15-y) (> I16-m 7)) (and (= I16-y I15-y) (= I16-m 7) (> I16-d I15-d)))))
(assert (not (distinct I15-y (ite B2-F I2-y 0))))
(assert (not (< I15-y 2025)))
(assert (not (= I19 0)))
(assert (not (> (ite (>= (- I17 5450) 0) (- I17 5450) (- (- I17 5450))) 100)))
(assert (not (> (* I19 100) (- 9790984370))))
(assert (not (> (ite (>= (- I18 51824173) 0) (- I18 51824173) (- (- I18 51824173))) 100)))
(assert (not (> (ite (>= (- I20 (div (* I19 55) 10)) 0) (- I20 (div (* I19 55) 10)) (- (- I20 (div (* I19 55) 10)))) 100)))
(assert (not (or (> I14-e-y I15-y) (and (= I14-e-y I15-y) (> I14-e-m 7)) (and (= I14-e-y I15-y) (= I14-e-m 7) (> I14-e-d I15-d)))))
(assert (not (or (< I14-s-y (- I14-e-y 1)) (and (= I14-s-y (- I14-e-y 1)) (< I14-s-m I14-e-m)) (and (= I14-s-y (- I14-e-y 1)) (= I14-s-m I14-e-m) (< I14-s-d (+ I14-e-d 1))))))
(assert (not B28-F))
(assert B2-F)
(assert (not (and B2-F (or (< 2026 I2-y) (= 2026 I2-y)))))
(assert (not (and B2-F (or (< 2027 I2-y) (= 2027 I2-y)))))
(assert (not (= S1-S "0")))
(assert (not (distinct I43 (+ I39 (- 75342469651285)))))
(assert (not (distinct I43 (- 100))))
(push 1)
(assert B3-F)
(set-info :status sat)
(check-sat)
(push 1)
(assert B37-F)
(set-info :status sat)
(check-sat)
(push 1)
(assert B40-F)
(set-info :status sat)
(check-sat)
(push 1)
(assert B41-F)
(set-info :status sat)
(check-sat)
(push 1)
(assert B32-F)
(set-info :status sat)
(check-sat)
(push 1)
(assert B33-F)
(set-info :status sat)
(check-sat)
(push 1)
(assert B30-F)
(set-info :status unsat)
(check-sat)
(pop 1)
(push 1)
(assert B42-F)
(set-info :status sat)
(check-sat)
(push 1)
(assert B31-F)
(set-info :status unsat)
(check-sat)
(pop 1)
(push 1)
(assert B2-F)
(set-info :status sat)
(check-sat)
(push 1)
(assert B35-F)
(set-info :status sat)
(check-sat)
(push 1)
(assert B34-F)
(set-info :status sat)
(check-sat)
(push 1)
(assert B28-F)
(set-info :status unsat)
(check-sat)
(pop 1)
(push 1)
(assert B46-F)
(set-info :status sat)
(check-sat)
(push 1)
(assert B45-F)
(set-info :status sat)
(check-sat)
(push 1)
(assert B36-F)
(set-info :status sat)
(check-sat)
(push 1)
(assert B38-F)
(set-info :status sat)
(check-sat)
(push 1)
(assert B39-F)
(set-info :status sat)
(check-sat)
(exit)

